12
Benzene | element  x [Angstrom]  y [Angstrom]  z [Angstrom]  label  charge [e]  mass [g/mol]
C      -1.385616    -0.133163     0.000016     C_benz   -0.09500   12.00000
C      -0.577485    -1.266560    -0.000328     C_benz   -0.09500   12.00000
C       0.808131    -1.133397     0.000233     C_benz   -0.09500   12.00000
C       1.385616     0.133163    -0.000059     C_benz   -0.09500   12.00000
C       0.577485     1.266561    -0.000194     C_benz   -0.09500   12.00000
C      -0.808131     1.133397     0.000240     C_benz   -0.09500   12.00000
H      -2.460663    -0.236480     0.000023     H_benz    0.09500    1.00794
H      -1.025534    -2.249236     0.000262     H_benz    0.09500    1.00794
H       1.435129    -2.012757     0.000589     H_benz    0.09500    1.00794
H       2.460663     0.236479     0.000317     H_benz    0.09500    1.00794
H       1.025535     2.249236    -0.000420     H_benz    0.09500    1.00794
H      -1.435129     2.012757     0.000330     H_benz    0.09500    1.00794
