12
N,N-Dimethylformamide | element  x [Angstrom]  y [Angstrom]  z [Angstrom]  label  charge [e]  mass [g/mol]
C      -1.672228    -0.776023     0.000290     C_3dmf    0.14290   12.01100
N      -0.449353    -0.002468    -0.000515      N_dmf   -1.11920   14.00670
C      -0.501726     1.445853     0.000078     C_3dmf    0.14290   12.01100
C       0.777892    -0.633150    -0.000352     C_2dmf    0.59240   12.01100
O       1.865770    -0.072678     0.000284      O_dmf   -0.40200   15.99940
H      -2.552576    -0.128815     0.001323      H_dmf    0.08660    1.00784
H      -1.684064    -1.414834     0.888640      H_dmf    0.08660    1.00784
H      -1.685635    -1.414198    -0.888579      H_dmf    0.08660    1.00784
H      -1.534162     1.804112     0.001139      H_dmf    0.08660    1.00784
H       0.014267     1.818912    -0.889604      H_dmf    0.08660    1.00784
H       0.015862     1.818241     0.889105      H_dmf    0.08660    1.00784
H       0.689977    -1.732496     0.000432     H_1dmf    0.12340    1.00784
