8
Octane | element  x [Angstrom]  y [Angstrom]  z [Angstrom]  label  charge [e]  mass [g/mol]
C       4.532085     0.265337     0.000000    CH3_sp3    0.00000   15.03452
C       3.212745    -0.528981     0.000000    CH2_sp3    0.00000   14.02668
C       1.950475     0.353218     0.000000    CH2_sp3    0.00000   14.02668
C       0.631135    -0.441100     0.000000    CH2_sp3    0.00000   14.02668
C      -0.631135     0.441100     0.000000    CH2_sp3    0.00000   14.02668
C      -1.950475    -0.353218     0.000000    CH2_sp3    0.00000   14.02668
C      -3.212745     0.528981     0.000000    CH2_sp3    0.00000   14.02668
C      -4.532085    -0.265337     0.000000    CH3_sp3    0.00000   15.03452
