12
Benzene | element  x [Angstrom]  y [Angstrom]  z [Angstrom]
C      -1.375256     0.232829     0.000000
C      -0.485993     1.307421     0.000000
C       0.889264     1.074593     0.000000
C       1.375256    -0.232829     0.000000
C       0.485993    -1.307421     0.000000
C      -0.889264    -1.074593     0.000000
H      -2.446739     0.414229     0.000000
H      -0.864637     2.326053     0.000000
H       1.582103     1.911824     0.000000
H       2.446739    -0.414229     0.000000
H       0.864637    -2.326053     0.000000
H      -1.582103    -1.911824     0.000000
