14
Butane | element  x [Angstrom]  y [Angstrom]  z [Angstrom]
C      -1.930585    -0.135298     0.000000
C      -0.558908     0.520407     0.000000
C       0.558908    -0.520407     0.000000
C       1.930585     0.135298     0.000000
H      -2.715394     0.627589     0.000001
H      -2.065898    -0.761895    -0.887364
H      -2.065897    -0.761896     0.887363
H      -0.468179     1.164596     0.882366
H      -0.468179     1.164595    -0.882366
H       0.468178    -1.164595     0.882366
H       0.468178    -1.164595    -0.882366
H       2.065898     0.761895    -0.887363
H       2.715393    -0.627589    -0.000001
H       2.065898     0.761894     0.887364
