12
N,N-Dimethylformamide | element  x [Angstrom]  y [Angstrom]  z [Angstrom]
C      -0.550790     1.429209     0.006674
N      -0.439507    -0.015124    -0.054767
C      -1.658496    -0.792983     0.027759
C       0.800055    -0.619326    -0.017923
O       1.879966    -0.044522     0.023691
H      -1.234168     1.766622    -0.777831
H       0.419210     1.913642    -0.133119
H      -0.950422     1.708779     0.985835
H      -1.450682    -1.862379    -0.066588
H      -2.332872    -0.485221    -0.776273
H      -2.131056    -0.605905     0.996331
H       0.740380    -1.720111    -0.040065
