23
Heptane | element  x [Angstrom]  y [Angstrom]  z [Angstrom]
C      -3.783152    -0.356439     0.000000
C      -2.525200     0.497416     0.000000
C      -1.263104    -0.364757     0.000000
C       0.000000     0.497913     0.000000
C       1.263103    -0.364757     0.000000
C       2.525200     0.497416     0.000000
C       3.783153    -0.356439     0.000000
H      -3.823041    -0.996236    -0.887358
H      -3.823044    -0.996230     0.887362
H      -4.673402     0.280246    -0.000004
H      -2.532098     1.147730     0.882468
H      -2.532099     1.147729    -0.882468
H      -1.263213    -1.016210     0.882429
H      -1.263213    -1.016211    -0.882428
H       0.000000     1.149183     0.882535
H       0.000000     1.149182    -0.882535
H       1.263212    -1.016211    -0.882428
H       1.263212    -1.016211     0.882428
H       2.532097     1.147730    -0.882467
H       2.532098     1.147729     0.882468
H       3.823044    -0.996234     0.887359
H       4.673402     0.280247     0.000002
H       3.823045    -0.996231    -0.887362
