26
Octane | element  x [Angstrom]  y [Angstrom]  z [Angstrom]
C      -4.426816    -0.267601     0.000000
C      -3.139638     0.541523     0.000002
C      -1.908621    -0.364466     0.000002
C      -0.616004     0.453292     0.000000
C       0.616003    -0.453287    -0.000001
C       1.908622     0.364469    -0.000005
C       3.139636    -0.541524    -0.000001
C       4.426818     0.267595     0.000004
H      -4.489163    -0.905598    -0.887361
H      -4.489166    -0.905599     0.887359
H      -5.294143     0.399973    -0.000002
H      -3.123681     1.191676     0.882470
H      -3.123678     1.191679    -0.882465
H      -1.931615    -1.015513     0.882431
H      -1.931617    -1.015515    -0.882426
H      -0.593121     1.104153    -0.882533
H      -0.593119     1.104153     0.882532
H       0.593116    -1.104150    -0.882532
H       0.593120    -1.104146     0.882533
H       1.931619     1.015520     0.882420
H       1.931619     1.015512    -0.882437
H       3.123677    -1.191679    -0.882468
H       3.123672    -1.191678     0.882467
H       5.294143    -0.399982     0.000006
H       4.489171     0.905593    -0.887356
H       4.489165     0.905592     0.887365
