17
Pentane | element  x [Angstrom]  y [Angstrom]  z [Angstrom]
C      -2.520088    -0.330554     0.000000
C      -1.262110     0.523285     0.000000
C       0.000000    -0.338832     0.000000
C       1.262110     0.523285     0.000000
C       2.520088    -0.330554     0.000000
H      -2.559998    -0.970345     0.887362
H      -3.410325     0.306150    -0.000002
H      -2.559996    -0.970348    -0.887360
H      -1.269009     1.173606    -0.882469
H      -1.269009     1.173606     0.882469
H       0.000000    -0.990483     0.882326
H       0.000000    -0.990483    -0.882326
H       1.269009     1.173606     0.882470
H       1.269009     1.173607    -0.882469
H       2.559997    -0.970347     0.887361
H       3.410325     0.306150     0.000001
H       2.559997    -0.970346    -0.887361
