11
Propane | element  x [Angstrom]  y [Angstrom]  z [Angstrom]
C      -1.257047    -0.271709     0.000000
C       0.000000     0.581638     0.000000
C       1.257047    -0.271709     0.000000
H      -2.147495     0.364688     0.000000
H      -1.296778    -0.911732     0.887244
H      -1.296778    -0.911732    -0.887243
H       0.000000     1.231063    -0.882415
H       0.000000     1.231063     0.882415
H       1.296778    -0.911732    -0.887244
H       1.296778    -0.911732     0.887243
H       2.147495     0.364688     0.000001
